p cnf 273 954
c t mc
-3 -2 0
-3 -1 0
2 1 3 0
3 -4 0
-3 -4 0
5 1 0
5 4 0
-1 -4 -5 0
5 -6 -7 0
-5 6 -7 0
5 6 7 0
-5 -6 7 0
9 -7 0
9 8 0
7 -8 -9 0
-11 9 0
-11 10 0
-9 -10 11 0
-15 14 0
-15 3 0
-14 -3 15 0
-16 -17 -18 0
16 17 -18 0
-16 17 18 0
16 -17 18 0
-19 20 -21 0
19 -20 -21 0
-19 -20 21 0
19 20 21 0
-18 21 -22 0
18 -21 -22 0
-18 -21 22 0
18 21 22 0
-23 -15 0
-23 -22 0
15 22 23 0
13 23 -24 0
-13 -23 -24 0
13 -23 24 0
-13 23 24 0
-12 -24 -25 0
12 24 -25 0
-12 24 25 0
12 -24 25 0
-11 -25 -26 0
11 25 -26 0
-11 25 26 0
11 -25 26 0
29 -27 0
29 28 0
27 -28 -29 0
-30 -29 0
-30 -15 0
29 15 30 0
31 12 -32 0
-31 -12 -32 0
31 -12 32 0
-31 12 32 0
-30 32 -33 0
30 -32 -33 0
-30 -32 33 0
30 32 33 0
-34 -5 0
-34 4 0
5 -4 34 0
36 1 0
36 35 0
-1 -35 -36 0
37 -5 0
37 36 0
5 -36 -37 0
-38 34 0
-38 37 0
-34 -37 38 0
-39 16 0
-39 38 0
-16 -38 39 0
40 34 0
40 39 0
-34 -39 -40 0
43 41 0
43 -42 0
-41 42 -43 0
-44 -20 0
-44 43 0
20 -43 44 0
-45 -44 0
-45 -1 0
44 1 45 0
-46 -40 0
-46 -45 0
40 45 46 0
-47 19 0
-47 3 0
-19 -3 47 0
-46 -47 -48 0
46 47 -48 0
-46 47 48 0
46 -47 48 0
49 -33 0
49 -48 0
33 48 -49 0
26 49 -50 0
-26 -49 -50 0
26 -49 50 0
-26 49 50 0
-52 51 0
-52 -30 0
-51 30 52 0
54 53 0
54 -30 0
-53 30 -54 0
-52 54 -55 0
52 -54 -55 0
-52 -54 55 0
52 54 55 0
-56 -19 0
-56 13 0
19 -13 56 0
29 -56 -57 0
-29 56 -57 0
29 56 57 0
-29 -56 57 0
58 -57 0
58 -41 0
57 41 -58 0
55 -58 -59 0
-55 58 -59 0
55 58 59 0
-55 -58 59 0
60 -59 0
60 -8 0
59 8 -60 0
61 43 0
61 -47 0
-43 47 -61 0
-62 -61 0
-62 -14 0
61 14 62 0
63 -60 0
63 62 0
60 -62 -63 0
64 50 0
64 63 0
-50 -63 -64 0
65 -27 0
65 31 0
27 -31 -65 0
-66 44 0
-66 -65 0
-44 65 66 0
-67 66 0
-67 27 0
-66 -27 67 0
-68 -67 0
-68 -39 0
67 39 68 0
69 -68 0
69 -16 0
68 16 -69 0
70 -53 0
70 21 0
53 -21 -70 0
-70 36 -71 0
70 -36 -71 0
-70 -36 71 0
70 36 71 0
71 -19 -72 0
-71 19 -72 0
71 19 72 0
-71 -19 72 0
73 47 0
73 72 0
-47 -72 -73 0
74 69 0
74 -73 0
-69 73 -74 0
75 -64 0
75 -74 0
64 74 -75 0
17 53 -76 0
-17 -53 -76 0
17 -53 76 0
-17 53 76 0
77 -37 0
77 -76 0
37 76 -77 0
-78 3 0
-78 -8 0
-3 8 78 0
79 44 0
79 -78 0
-44 78 -79 0
-80 -77 0
-80 -79 0
77 79 80 0
-81 -78 0
-81 -32 0
78 32 81 0
81 24 -82 0
-81 -24 -82 0
81 -24 82 0
-81 24 82 0
-82 4 -83 0
82 -4 -83 0
-82 -4 83 0
82 4 83 0
-84 -31 0
-84 -24 0
31 24 84 0
-85 -84 0
-85 -8 0
84 8 85 0
86 85 0
86 -24 0
-85 24 -86 0
87 83 0
87 -86 0
-83 86 -87 0
80 -87 -88 0
-80 87 -88 0
80 87 88 0
-80 -87 88 0
89 75 0
89 -88 0
-75 88 -89 0
91 90 0
91 -49 0
-90 49 -91 0
45 -57 -92 0
-45 57 -92 0
45 57 92 0
-45 -57 92 0
93 8 0
93 3 0
-8 -3 -93 0
94 93 0
94 5 0
-93 -5 -94 0
95 -94 0
95 -10 0
94 10 -95 0
-96 92 0
-96 -95 0
-92 95 96 0
97 -10 0
97 57 0
10 -57 -97 0
-96 -97 -98 0
96 97 -98 0
-96 97 98 0
96 -97 98 0
56 44 -99 0
-56 -44 -99 0
56 -44 99 0
-56 44 99 0
99 -16 -100 0
-99 16 -100 0
99 16 100 0
-99 -16 100 0
-101 -28 0
-101 38 0
28 -38 101 0
102 -100 0
102 -101 0
100 101 -102 0
98 102 -103 0
-98 -102 -103 0
98 -102 103 0
-98 102 103 0
-104 -3 0
-104 17 0
3 -17 104 0
105 68 0
105 -104 0
-68 104 -105 0
106 37 0
106 -34 0
-37 34 -106 0
-107 106 0
-107 -42 0
-106 42 107 0
108 -10 0
108 -107 0
10 107 -108 0
-47 43 -109 0
47 -43 -109 0
-47 -43 109 0
47 43 109 0
-110 108 0
-110 109 0
-108 -109 110 0
111 37 0
111 43 0
-37 -43 -111 0
110 -111 -112 0
-110 111 -112 0
110 111 112 0
-110 -111 112 0
113 -47 0
113 65 0
47 -65 -113 0
-9 -113 -114 0
9 113 -114 0
-9 113 114 0
9 -113 114 0
115 -112 0
115 -114 0
112 114 -115 0
116 -105 0
116 115 0
105 -115 -116 0
117 20 0
117 24 0
-20 -24 -117 0
117 -106 -118 0
-117 106 -118 0
117 106 118 0
-117 -106 118 0
-119 -41 0
-119 2 0
41 -2 119 0
-120 -117 0
-120 119 0
117 -119 120 0
121 118 0
121 120 0
-118 -120 -121 0
-116 121 -122 0
116 -121 -122 0
-116 -121 122 0
116 121 122 0
-123 22 0
-123 84 0
-22 -84 123 0
-124 71 0
-124 77 0
-71 -77 124 0
125 53 0
125 22 0
-53 -22 -125 0
124 -125 -126 0
-124 125 -126 0
124 125 126 0
-124 -125 126 0
127 123 0
127 126 0
-123 -126 -127 0
-128 -6 0
-128 -19 0
6 19 128 0
129 -128 0
129 -43 0
128 43 -129 0
129 14 -130 0
-129 -14 -130 0
129 -14 130 0
-129 14 130 0
131 -93 0
131 104 0
93 -104 -131 0
132 -130 0
132 -131 0
130 131 -132 0
133 -132 0
133 -94 0
132 94 -133 0
134 -133 0
134 -57 0
133 57 -134 0
-6 21 -135 0
6 -21 -135 0
-6 -21 135 0
6 21 135 0
-76 -135 -136 0
76 135 -136 0
-76 135 136 0
76 -135 136 0
128 136 -137 0
-128 -136 -137 0
128 -136 137 0
-128 136 137 0
77 -137 -138 0
-77 137 -138 0
77 137 138 0
-77 -137 138 0
139 134 0
139 138 0
-134 -138 -139 0
140 127 0
140 -139 0
-127 139 -140 0
122 -140 -141 0
-122 140 -141 0
122 140 141 0
-122 -140 141 0
103 141 -142 0
-103 -141 -142 0
103 -141 142 0
-103 141 142 0
-46 -70 -143 0
46 70 -143 0
-46 70 143 0
46 -70 143 0
144 77 0
144 5 0
-77 -5 -144 0
-144 43 -145 0
144 -43 -145 0
-144 -43 145 0
144 43 145 0
-146 -143 0
-146 145 0
143 -145 146 0
-57 -35 -147 0
57 35 -147 0
-57 35 147 0
57 -35 147 0
-148 43 0
-148 -99 0
-43 99 148 0
-149 94 0
-149 3 0
-94 -3 149 0
150 -70 0
150 117 0
70 -117 -150 0
151 -150 0
151 132 0
150 -132 -151 0
-152 149 0
-152 -151 0
-149 151 152 0
-153 148 0
-153 152 0
-148 -152 153 0
-154 147 0
-154 153 0
-147 -153 154 0
155 146 0
155 154 0
-146 -154 -155 0
-156 -142 0
-156 155 0
142 -155 156 0
157 91 0
157 -156 0
-91 156 -157 0
158 -59 0
158 58 0
59 -58 -158 0
-6 24 -159 0
6 -24 -159 0
-6 -24 159 0
6 24 159 0
-160 67 0
-160 -159 0
-67 159 160 0
161 35 0
161 -24 0
-35 24 -161 0
162 3 0
162 14 0
-3 -14 -162 0
-162 -44 -163 0
162 44 -163 0
-162 44 163 0
162 -44 163 0
164 -161 0
164 163 0
161 -163 -164 0
160 -164 -165 0
-160 164 -165 0
160 164 165 0
-160 -164 165 0
-29 43 -166 0
29 -43 -166 0
-29 -43 166 0
29 43 166 0
-167 3 0
-167 -106 0
-3 106 167 0
168 166 0
168 -167 0
-166 167 -168 0
169 165 0
169 -168 0
-165 168 -169 0
-170 -158 0
-170 -169 0
158 169 170 0
-171 -56 0
-171 -162 0
56 162 171 0
13 -32 -172 0
-13 32 -172 0
13 32 172 0
-13 -32 172 0
161 -12 -173 0
-161 12 -173 0
161 12 173 0
-161 -12 173 0
174 -172 0
174 -173 0
172 173 -174 0
175 -171 0
175 -174 0
171 174 -175 0
176 -9 0
176 -34 0
9 34 -176 0
177 -176 0
177 17 0
176 -17 -177 0
-178 172 0
-178 -133 0
-172 133 178 0
-179 -35 0
-179 62 0
35 -62 179 0
-180 178 0
-180 -179 0
-178 179 180 0
177 180 -181 0
-177 -180 -181 0
177 -180 181 0
-177 180 181 0
182 144 0
182 -129 0
-144 129 -182 0
-183 62 0
-183 32 0
-62 -32 183 0
182 183 -184 0
-182 -183 -184 0
182 -183 184 0
-182 183 184 0
181 -184 -185 0
-181 184 -185 0
181 184 185 0
-181 -184 185 0
186 175 0
186 185 0
-175 -185 -186 0
-187 170 0
-187 -186 0
-170 186 187 0
-130 -113 -188 0
130 113 -188 0
-130 113 188 0
130 -113 188 0
44 109 -189 0
-44 -109 -189 0
44 -109 189 0
-44 109 189 0
-190 -131 0
-190 -3 0
131 3 190 0
-191 189 0
-191 190 0
-189 -190 191 0
192 -188 0
192 191 0
188 -191 -192 0
-31 -30 -193 0
31 30 -193 0
-31 30 193 0
31 -30 193 0
-28 193 -194 0
28 -193 -194 0
-28 -193 194 0
28 193 194 0
-195 135 0
-195 -7 0
-135 7 195 0
196 -45 0
196 -42 0
45 42 -196 0
195 -196 -197 0
-195 196 -197 0
195 196 197 0
-195 -196 197 0
-198 194 0
-198 -197 0
-194 197 198 0
199 -192 0
199 198 0
192 -198 -199 0
11 131 -200 0
-11 -131 -200 0
11 -131 200 0
-11 131 200 0
201 200 0
201 -57 0
-200 57 -201 0
202 -54 0
202 -201 0
54 201 -202 0
-203 -162 0
-203 196 0
162 -196 203 0
-204 85 0
-204 71 0
-85 -71 204 0
-203 -204 -205 0
203 204 -205 0
-203 204 205 0
203 -204 205 0
-202 205 -206 0
202 -205 -206 0
-202 -205 206 0
202 205 206 0
207 199 0
207 206 0
-199 -206 -207 0
208 187 0
208 -207 0
-187 207 -208 0
157 -208 -209 0
-157 208 -209 0
157 208 209 0
-157 -208 209 0
-51 -93 -210 0
51 93 -210 0
-51 93 210 0
51 -93 210 0
163 14 -211 0
-163 -14 -211 0
163 -14 211 0
-163 14 211 0
212 211 0
212 200 0
-211 -200 -212 0
27 -10 -213 0
-27 10 -213 0
27 10 213 0
-27 -10 213 0
212 -213 -214 0
-212 213 -214 0
212 213 214 0
-212 -213 214 0
-78 -120 -215 0
78 120 -215 0
-78 120 215 0
78 -120 215 0
216 -215 0
216 -204 0
215 204 -216 0
-217 -29 0
-217 32 0
29 -32 217 0
218 20 0
218 19 0
-20 -19 -218 0
219 -217 0
219 218 0
217 -218 -219 0
-39 -162 -220 0
39 162 -220 0
-39 162 220 0
39 -162 220 0
-220 -61 -221 0
220 61 -221 0
-220 61 221 0
220 -61 221 0
-222 219 0
-222 221 0
-219 -221 222 0
-223 216 0
-223 222 0
-216 -222 223 0
224 214 0
224 -223 0
-214 223 -224 0
-225 210 0
-225 224 0
-210 -224 225 0
51 42 -226 0
-51 -42 -226 0
51 -42 226 0
-51 42 226 0
-227 226 0
-227 -43 0
-226 43 227 0
-225 -227 -228 0
225 227 -228 0
-225 227 228 0
225 -227 228 0
-229 -19 0
-229 -51 0
19 51 229 0
137 229 -230 0
-137 -229 -230 0
137 -229 230 0
-137 229 230 0
231 -117 0
231 -230 0
117 230 -231 0
232 43 0
232 -27 0
-43 27 -232 0
-233 -85 0
-233 -232 0
85 232 233 0
-39 58 -234 0
39 -58 -234 0
-39 -58 234 0
39 58 234 0
-235 128 0
-235 -57 0
-128 57 235 0
236 -2 0
236 -235 0
2 235 -236 0
-237 124 0
-237 -236 0
-124 236 237 0
-238 -119 0
-238 -2 0
119 2 238 0
-237 238 -239 0
237 -238 -239 0
-237 -238 239 0
237 238 239 0
240 239 0
240 -10 0
-239 10 -240 0
-241 31 0
-241 33 0
-31 -33 241 0
-242 -59 0
-242 -107 0
59 107 242 0
243 -241 0
243 242 0
241 -242 -243 0
-240 -243 -244 0
240 243 -244 0
-240 243 244 0
240 -243 244 0
245 -234 0
245 244 0
234 -244 -245 0
-246 233 0
-246 -245 0
-233 245 246 0
231 -246 -247 0
-231 246 -247 0
231 246 247 0
-231 -246 247 0
-248 -228 0
-248 247 0
228 -247 248 0
-29 176 -249 0
29 -176 -249 0
-29 -176 249 0
29 176 249 0
250 -249 0
250 45 0
249 -45 -250 0
251 248 0
251 250 0
-248 -250 -251 0
209 251 -252 0
-209 -251 -252 0
209 -251 252 0
-209 251 252 0
-36 201 -253 0
36 -201 -253 0
-36 -201 253 0
36 201 253 0
-254 -211 0
-254 -16 0
211 16 254 0
-255 -3 0
-255 5 0
3 -5 255 0
-256 -217 0
-256 255 0
217 -255 256 0
256 125 -257 0
-256 -125 -257 0
256 -125 257 0
-256 125 257 0
258 254 0
258 257 0
-254 -257 -258 0
-253 258 -259 0
253 -258 -259 0
-253 -258 259 0
253 258 259 0
-260 35 0
-260 -39 0
-35 39 260 0
-261 78 0
-261 -31 0
-78 31 261 0
262 -260 0
262 -261 0
260 261 -262 0
263 119 0
263 11 0
-119 -11 -263 0
264 263 0
264 43 0
-263 -43 -264 0
-265 -264 0
-265 -51 0
264 51 265 0
-262 265 -266 0
262 -265 -266 0
-262 -265 266 0
262 265 266 0
23 34 -267 0
-23 -34 -267 0
23 -34 267 0
-23 34 267 0
-268 -130 0
-268 7 0
130 -7 268 0
-269 -267 0
-269 268 0
267 -268 269 0
-270 266 0
-270 269 0
-266 -269 270 0
-259 270 -271 0
259 -270 -271 0
-259 -270 271 0
259 270 271 0
272 -252 0
272 271 0
252 -271 -272 0
-273 89 0
-273 -272 0
-89 272 273 0
113 -273 -118 -223 0
71 217 229 212 0
65 55 -116 110 0
-6 186 -247 17 19 125 183 -239 -23 0
-233 -256 199 0
67 184 0
-241 176 46 0
-273 -157 3 -124 -206 46 0
-3 -206 -107 124 -70 0
108 -26 0
-129 -41 20 205 113 174 108 -263 0
-185 118 -76 -60 -4 -180 0
-225 -261 33 252 -253 -230 -112 -241 0
-17 89 125 220 120 -260 -251 0
112 -264 52 -173 -49 0
-264 -9 -32 256 -158 -177 -3 -102 -272 0
133 268 -10 193 168 -178 54 -15 -72 227 0
-171 140 173 -150 174 -68 198 0
208 -224 136 202 142 206 0
17 227 -26 0
-20 77 -139 -203 -61 0
-141 -92 114 -170 -80 0
-53 -125 12 94 -136 148 -154 186 14 0
162 7 0
110 101 -225 234 -168 0
-93 88 -61 4 -227 -69 272 0
86 185 -159 -62 229 -45 0
83 -153 195 -123 179 -53 -139 -202 -229 118 0
-211 215 -128 -179 0
206 183 -99 -81 -251 175 -267 0
2 -21 87 -102 116 -63 0
-132 -40 -124 44 62 -152 0
-11 195 -80 122 78 -271 0
72 181 171 -218 120 -76 -103 -119 -106 0
-153 -267 -70 -239 -72 108 205 0
-21 51 0
200 57 191 258 -131 97 112 -79 -129 0
-251 120 -15 0
208 19 -22 215 0
-185 -87 65 -201 40 165 0
170 -223 0
-15 -87 -206 -208 -81 212 -129 41 0
180 -51 132 -97 -210 -124 83 -192 0
-271 240 0
-78 248 -62 0
246 -105 -90 0
-198 165 -138 -247 143 -255 -261 171 0
6 -231 31 -202 0
-63 30 -5 25 193 50 0
-73 -128 82 203 -42 -271 -238 115 -35 -168 0
-62 127 -45 -256 0
62 -16 48 143 -182 35 0
245 91 26 -20 0
253 -190 -163 259 16 36 0
57 218 232 0
123 273 -3 224 0
269 -18 -186 65 -116 -249 0
-199 -148 -184 -7 -48 257 0
49 -248 162 260 0
115 206 98 -193 87 25 132 252 0
111 144 -63 150 -84 160 256 215 -39 -120 0
-136 193 -18 -119 -182 -146 213 0
-76 196 -272 0
60 -162 135 -270 150 0
-169 -235 -8 -102 166 -156 -227 -224 0
262 170 -166 91 -264 198 0
-61 -109 140 -208 237 187 273 258 -160 246 0
-142 -83 3 -93 -250 -209 -117 0
246 -234 -58 273 -188 38 240 222 1 0
-110 -87 116 -212 -233 0
-226 37 270 62 -238 -273 165 -54 -179 -30 0
68 -184 -135 0
-100 88 -52 -24 245 28 0
-224 -172 110 103 -75 155 -95 181 147 0
38 78 -153 240 -19 -25 261 222 -72 0
112 -138 -198 159 0
-168 -198 -202 0
130 -186 0
-118 -205 -89 -158 251 194 227 0
61 -190 0
-215 3 204 -267 -174 -67 -257 17 9 207 0
23 -147 -254 0
90 -44 -231 0
-146 -115 -62 -189 167 -156 -253 -135 -157 0
-224 141 231 -223 -270 265 115 -207 -174 0
-239 -90 13 139 73 0
-129 -37 132 -81 -119 0
-205 -165 29 203 -68 264 -62 182 0
-145 -224 90 -55 86 -48 0
76 54 -145 27 -59 -36 148 -165 167 0
-265 -129 -188 -50 52 -94 0
159 -229 -188 -14 0
209 -210 97 6 -179 223 115 -253 117 0
1 156 172 273 128 -190 114 133 0
34 44 140 23 -244 3 -59 138 -77 0
-170 -131 -145 -40 -168 -105 161 0
-102 -228 34 167 -19 110 0
204 195 220 42 -103 -8 -262 244 157 0
-167 -221 208 0
108 130 0
256 -8 -25 -59 -18 9 -71 -158 -47 -182 0
94 -42 0
169 -242 -4 -42 0
130 122 0
156 -180 -107 -206 -197 0
-191 -137 40 88 0
4 18 47 236 -45 -233 0
35 203 -6 5 0
246 -103 -36 -59 179 0
261 -78 -206 -166 98 -253 -105 -265 0
201 30 239 -18 166 4 -255 0
245 -4 244 92 241 63 -90 114 235 0
-268 -98 -16 40 -35 13 25 0
94 -152 -97 0
157 -23 -61 0
257 73 0
114 -195 191 -40 39 -43 -256 0
273 0
